v = 5;
e = 2;
r = 4;
c = 3;
x = 100;
total_connection = 3;

videoSize = [50, 50, 80, 30, 110];

endpoint = [| 1000, 3
	| 500, 0 |];

request = [| 4, 1, 1500
	| 1, 2, 1000
	| 5, 1, 500
	| 2, 1, 1000 |];

eConCache = [| 100, 300, 200
		| 0, 0, 0 |]
